db/inputs/586427467142175434117497729230622530.smt2
(set-logic QF_FP)
(declare-const x0 (_ FloatingPoint 11 53))
(declare-const x1 (_ FloatingPoint 11 53))
(declare-const x2 (_ FloatingPoint 11 53))
(declare-const x3 (_ FloatingPoint 11 53))
(assert (fp.eq (fp.add RNE x3 x1) (fp.neg x2)))
(assert (fp.lt (fp.div RNE x0 x1) (fp.neg x2)))
(assert (fp.geq (fp.add RNE x3 x1) (fp.mul RNE x0 x1)))
(assert (fp.leq (fp.div RNE x0 x0) (fp.neg x0)))
(assert (fp.gt (fp.add RNE x1 x2) (fp.div RNE x0 x0)))
(assert (fp.geq (fp.div RNE x1 x3) (fp.neg x0)))
(assert (fp.lt (fp.mul RNE x3 x2) (fp.neg x1)))
(assert (fp.gt (fp.add RNE x3 x1) (fp.div RNE x3 x3)))
(assert (fp.eq (fp.sub RNE x0 x2) (fp.add RNE x3 x2)))
(assert (fp.gt (fp.sub RNE x3 x1) (fp.add RNE x0 x0)))
(assert (fp.geq (fp.neg x1) (fp.sub RNE x1 x1)))
(assert (fp.lt (fp.sub RNE x2 x3) (fp.neg x3)))
(assert (fp.lt (fp.mul RNE x2 x3) (fp.neg x1)))
(assert (fp.gt (fp.mul RNE x2 x3) (fp.add RNE x3 x0)))
(assert (fp.geq (fp.sub RNE x1 x3) (fp.mul RNE x2 x1)))
(assert (fp.leq (fp.neg x2) (fp.add RNE x3 x1)))
(check-sat)
