db/data/586427467142175434117497729230622530.z3.out
unsat
-------------------
382.575244100
